p cnf 493 1611
c ind 491 469 470 473 468 471 472 479 485 489 0
c ind 482 483 488 423 481 475 476 478 490 474 0
c ind 484 487 425 445 449 480 421 422 444 448 0
c ind 467 486 420 424 447 477 466 446 443 462 0
c ind 438 442 465 441 464 440 426 427 428 430 0
c ind 431 461 429 435 457 436 437 451 454 458 0
c ind 460 450 452 433 434 453 459 439 455 432 0
c ind 456 463 1 0
c ret 324 333 334 335 336 337 338 339 340 341 0
c ret 342 325 343 344 345 346 347 348 349 350 0
c ret 351 352 326 353 354 355 356 357 358 359 0
c ret 360 361 362 327 363 364 365 366 367 368 0
c ret 369 370 371 372 328 373 374 375 376 377 0
c ret 378 379 380 381 382 329 383 384 385 386 0
c ret 387 388 389 390 391 392 330 393 394 395 0
c ret 396 397 398 399 400 401 402 331 403 404 0
c ret 405 406 407 408 409 410 411 412 332 413 0
c ret 414 415 416 417 418 419 0
2 3 -172 -252 -281 0
-2 -3 0
-2 281 0
-2 252 0
-2 172 0
3 -4 -38 98 -169 0
-3 169 0
-3 4 0
-3 38 0
-3 -98 0
4 -5 -23 -31 -33 0
-4 33 0
-4 5 0
-4 31 0
-4 23 0
5 6 -14 15 444 0
5 6 14 15 -444 0
-5 -6 0
-5 -14 -444 0
-5 -15 0
-5 14 444 0
6 7 446 0
-6 -446 0
-6 -7 0
7 -8 440 0
7 -8 -13 0
-7 8 0
-7 13 -440 0
8 9 11 0
-8 -9 0
-8 -11 0
9 -10 -428 429 0
-9 428 0
-9 -429 0
-9 10 0
10 -426 427 430 431 0
-10 -431 0
-10 -430 0
-10 426 0
-10 -427 0
11 -12 436 437 0
-11 12 0
-11 -437 0
-11 -436 0
12 -432 433 434 435 0
-12 -435 0
-12 -434 0
-12 432 0
-12 -433 0
-10 13 428 429 0
10 -13 0
-13 -429 0
-13 -428 0
-8 13 14 438 0
-14 -438 0
8 -14 0
-13 -14 0
15 -16 -468 0
-15 468 0
-15 16 0
16 -17 22 462 0
-16 -462 0
-16 17 0
-16 -22 0
17 18 20 0
-17 -18 0
-17 -20 0
18 -19 -452 453 0
-18 452 0
-18 -453 0
-18 19 0
19 -450 451 454 455 0
-19 -455 0
-19 -454 0
-19 450 0
-19 -451 0
20 -21 -456 457 0
-20 456 0
-20 -457 0
-20 21 0
21 458 459 460 461 0
-21 -461 0
-21 -460 0
-21 -458 0
-21 -459 0
-19 22 452 453 0
19 -22 0
-22 -453 0
-22 -452 0
23 24 -26 30 449 0
23 -24 -26 30 -449 0
-23 -30 0
-23 24 -449 0
-23 26 0
-23 -24 449 0
9 24 -25 -443 0
-24 443 0
-9 -24 0
-24 25 0
11 13 25 0
-11 -25 0
-13 -25 0
26 -27 -28 -465 489 0
26 27 -28 -465 -489 0
26 27 28 465 489 0
26 -27 28 465 -489 0
-26 -28 465 0
-26 27 -465 489 0
-26 -27 28 489 0
-26 -27 -465 -489 0
-26 27 28 -489 0
27 -463 -464 0
-27 463 0
-27 464 0
28 -29 441 0
28 29 -441 0
-28 -29 -441 0
-28 29 441 0
29 -439 -440 0
-29 439 0
-29 440 0
16 30 468 0
-30 -468 0
-16 -30 0
7 31 -32 470 0
31 32 446 -470 0
31 -32 446 470 0
7 31 32 -470 0
-31 32 470 0
-31 -32 -470 0
-7 -31 -446 0
-17 32 464 0
-17 -22 32 0
17 -32 0
22 -32 -464 0
33 -34 37 448 0
33 -34 -37 -448 -484 0
-33 -37 484 0
-33 37 -448 0
-33 34 0
-33 -37 448 0
34 -35 -473 0
34 35 473 0
-34 -35 473 0
-34 35 -473 0
18 35 -36 -467 0
-35 467 0
-18 -35 0
-35 36 0
20 22 36 0
-20 -36 0
-22 -36 0
9 -25 37 -442 0
-37 442 0
-9 -37 0
25 -37 0
38 -39 -45 -53 -94 0
-38 94 0
-38 39 0
-38 53 0
-38 45 0
39 40 42 43 469 0
39 40 -42 43 -469 0
-39 -40 0
-39 42 -469 0
-39 -43 0
-39 -42 469 0
40 -41 472 0
40 41 -472 0
-40 -41 -472 0
-40 41 472 0
18 -36 41 -466 0
-41 466 0
-18 -41 0
36 -41 0
18 36 42 0
18 42 -463 0
-18 -42 0
-36 -42 463 0
43 -44 447 0
43 44 -447 0
-43 -44 -447 0
-43 44 447 0
9 -25 44 -441 0
-44 441 0
-9 -44 0
25 -44 0
45 46 -48 51 466 0
45 -46 -48 -51 -466 0
-45 46 -51 0
-45 51 -466 0
-45 48 0
-45 -46 466 0
46 -47 490 0
46 47 -490 0
-46 -47 -490 0
-46 47 490 0
47 -463 -464 -465 0
-47 463 0
-47 464 0
-47 465 0
-9 48 -49 -50 -464 0
-9 48 49 50 464 0
-48 -50 464 0
-48 -49 50 0
9 -48 0
-48 49 -464 0
49 439 -440 0
49 -439 440 0
-49 -439 -440 0
-49 439 440 0
50 463 -488 0
50 -463 488 0
-50 -463 -488 0
-50 463 488 0
51 -52 442 0
51 52 -442 0
-51 -52 -442 0
-51 52 442 0
52 -439 -440 -441 0
-52 439 0
-52 440 0
-52 441 0
53 -54 -74 -84 -89 0
-53 89 0
-53 54 0
-53 84 0
-53 74 0
54 -55 -58 -61 -66 0
-54 66 0
-54 55 0
-54 61 0
-54 58 0
55 56 57 435 453 0
55 56 57 -435 -453 0
-55 -56 0
-55 -435 453 0
-55 -57 0
-55 435 -453 0
56 -459 477 0
-56 459 0
-56 -477 0
57 -456 474 0
-57 456 0
-57 -474 0
58 -59 -60 438 0
58 -59 -60 -462 0
-58 60 0
-58 59 0
-58 -438 462 0
59 436 437 0
-59 -436 0
-59 -437 0
60 457 462 0
60 -475 -486 0
60 457 -486 0
60 462 -475 0
-60 -457 475 0
-60 -462 486 0
61 -62 -63 -64 -65 0
-61 65 0
-61 62 0
-61 64 0
-61 63 0
62 -448 458 0
62 -476 484 0
62 458 484 0
62 -448 -476 0
-62 -458 476 0
-62 448 -484 0
63 -438 -483 0
63 447 462 0
63 462 -483 0
63 -438 447 0
-63 -447 483 0
-63 438 -462 0
64 -462 -487 0
64 -463 486 0
64 -462 -463 0
64 486 -487 0
-64 463 487 0
-64 462 -486 0
65 -447 457 0
65 -421 483 0
65 -421 -447 0
65 457 483 0
-65 447 -483 0
-65 421 -457 0
66 -67 -69 461 479 0
66 -67 -69 -461 -479 0
-66 69 0
-66 -461 479 0
-66 67 0
-66 461 -479 0
67 68 442 443 459 0
-67 -68 0
-67 -459 0
-67 -442 0
-67 -443 0
68 449 -485 0
68 -449 485 0
-68 -449 -485 0
-68 449 485 0
69 -70 -71 -72 -73 0
-69 73 0
-69 70 0
-69 72 0
-69 71 0
70 422 423 424 425 0
-70 -425 0
-70 -424 0
-70 -422 0
-70 -423 0
71 -420 421 -457 0
71 -420 421 475 0
-71 420 0
-71 -421 0
-71 457 -475 0
72 -438 -439 440 -441 0
-72 441 0
-72 438 0
-72 439 0
-72 -440 0
73 -432 -433 -434 435 0
-73 434 0
-73 -435 0
-73 432 0
-73 433 0
74 -75 -81 -82 -83 0
-74 83 0
-74 75 0
-74 82 0
-74 81 0
75 -76 -79 -80 0
-75 76 0
-75 79 0
-75 80 0
76 77 78 424 460 0
76 77 78 -424 -460 0
-76 -77 0
-76 -424 460 0
-76 -78 0
-76 424 -460 0
77 -437 455 0
-77 437 0
-77 -455 0
78 439 463 0
-78 -439 0
-78 -463 0
79 434 436 0
79 -452 -454 0
79 434 -454 0
79 436 -452 0
-79 -434 452 0
-79 -436 454 0
80 -433 474 0
80 451 -456 0
80 451 474 0
80 -433 -456 0
-80 433 -451 0
-80 456 -474 0
81 -422 425 -458 461 0
81 422 -425 458 -461 0
81 422 425 458 461 0
81 -422 -425 -458 -461 0
-81 -422 458 0
-81 422 -458 0
-81 425 -461 0
-81 -425 461 0
82 -432 476 0
82 450 -458 0
82 450 476 0
82 -432 -458 0
-82 432 -450 0
-82 458 -476 0
83 -436 463 0
83 439 454 0
83 454 463 0
83 -436 439 0
-83 -439 -463 0
-83 436 -454 0
84 -85 -86 -87 -88 0
-84 88 0
-84 85 0
-84 87 0
-84 86 0
85 444 446 0
85 -480 -482 0
85 444 -482 0
85 446 -480 0
-85 -444 480 0
-85 -446 482 0
86 -450 460 0
86 432 -478 0
86 432 460 0
86 -450 -478 0
-86 -432 450 0
-86 -460 478 0
87 -446 478 0
87 -460 482 0
87 -446 -460 0
87 478 482 0
-87 446 -482 0
-87 460 -478 0
88 -445 480 0
88 -444 481 0
88 -444 -445 0
88 480 481 0
-88 445 -481 0
-88 444 -480 0
89 -90 -91 -92 -93 0
-89 93 0
-89 90 0
-89 92 0
-89 91 0
90 -420 477 0
90 456 -459 0
90 456 477 0
90 -420 -459 0
-90 420 -456 0
-90 459 -477 0
91 -437 -451 0
91 433 455 0
91 433 -437 0
91 -451 455 0
-91 -433 451 0
-91 437 -455 0
92 445 463 0
92 -481 487 0
92 463 -481 0
92 445 487 0
-92 -445 481 0
-92 -463 -487 0
93 420 452 0
93 -434 -456 0
93 420 -434 0
93 452 -456 0
-93 -420 456 0
-93 434 -452 0
94 -95 -97 467 -491 0
94 -95 97 467 491 0
94 95 -97 -467 491 0
94 95 97 -467 -491 0
-94 -95 -467 0
-94 97 467 -491 0
-94 95 97 491 0
-94 -97 467 491 0
-94 95 -97 -491 0
95 -96 -443 0
95 96 443 0
-95 -96 443 0
-95 96 -443 0
-52 96 -442 0
-96 442 0
52 -96 0
-47 97 -466 0
-97 466 0
47 -97 0
98 104 -121 0
98 99 -121 0
98 107 -121 0
-98 121 0
-98 -99 -104 -107 0
99 -100 -103 403 451 0
99 -100 -103 -403 -451 0
-99 103 0
-99 -403 451 0
-99 100 0
-99 403 -451 0
100 101 102 406 454 0
100 101 102 -406 -454 0
-100 -101 0
-100 -406 454 0
-100 -102 0
-100 406 -454 0
101 398 -446 0
-101 -398 0
-101 446 0
102 -400 448 0
-102 400 0
-102 -448 0
103 407 416 0
103 -455 -464 0
103 407 -464 0
103 416 -455 0
-103 -407 455 0
-103 -416 464 0
104 -105 -106 419 467 0
104 -105 -106 -419 -467 0
-104 106 0
-104 -419 467 0
-104 105 0
-104 419 -467 0
105 -396 413 -444 461 0
105 396 -413 444 -461 0
105 396 413 444 461 0
105 -396 -413 -444 -461 0
-105 -396 444 0
-105 396 -444 0
-105 413 -461 0
-105 -413 461 0
106 -400 -446 0
106 398 448 0
106 398 -400 0
106 -446 448 0
-106 -398 446 0
-106 400 -448 0
107 -108 -116 -117 -118 0
-107 118 0
-107 108 0
-107 117 0
-107 116 0
108 -109 -113 -114 -115 0
-108 115 0
-108 109 0
-108 114 0
-108 113 0
109 -110 -112 415 463 0
109 -110 -112 -415 -463 0
-109 112 0
-109 -415 463 0
-109 110 0
-109 415 -463 0
110 -111 -412 -460 0
110 -111 412 460 0
-110 111 0
-110 -412 460 0
-110 412 -460 0
111 -411 455 0
111 -407 459 0
111 -407 -411 0
111 455 459 0
-111 411 -459 0
-111 407 -455 0
112 -399 -453 0
112 405 447 0
112 447 -453 0
112 -399 405 0
-112 -405 453 0
-112 399 -447 0
113 -404 410 -452 458 0
113 404 -410 452 -458 0
113 404 410 452 458 0
113 -404 -410 -452 -458 0
-113 -404 452 0
-113 404 -452 0
-113 410 -458 0
-113 -410 458 0
114 408 411 0
114 -456 -459 0
114 408 -459 0
114 411 -456 0
-114 -408 456 0
-114 -411 459 0
115 -416 -447 0
115 399 464 0
115 399 -416 0
115 -447 464 0
-115 -399 447 0
-115 416 -464 0
116 -417 418 -465 466 0
116 417 -418 465 -466 0
116 417 418 465 466 0
116 -417 -418 -465 -466 0
-116 -417 465 0
-116 417 -465 0
-116 418 -466 0
-116 -418 466 0
117 -397 409 -445 457 0
117 397 -409 445 -457 0
117 397 409 445 457 0
117 -397 -409 -445 -457 0
-117 -397 445 0
-117 397 -445 0
-117 409 -457 0
-117 -409 457 0
118 -119 -120 402 450 0
118 -119 -120 -402 -450 0
-118 120 0
-118 -402 450 0
-118 119 0
-118 402 -450 0
119 -401 414 -449 462 0
119 401 -414 449 -462 0
119 401 414 449 462 0
119 -401 -414 -449 -462 0
-119 -401 449 0
-119 401 -449 0
-119 414 -462 0
-119 -414 462 0
120 -408 453 0
120 -405 456 0
120 -405 -408 0
120 453 456 0
-120 408 -456 0
-120 405 -453 0
121 122 152 0
121 122 147 0
121 122 155 0
-121 -122 0
-121 -147 -152 -155 0
122 -123 -134 -141 -144 0
-122 144 0
-122 123 0
-122 141 0
-122 134 0
123 -124 -127 -130 -131 0
-123 131 0
-123 124 0
-123 130 0
-123 127 0
124 125 -126 408 0
124 125 -126 -432 0
-124 126 0
-124 -125 0
-124 -408 432 0
125 -399 423 0
-125 399 0
-125 -423 0
126 -400 421 0
126 -397 424 0
126 -397 -400 0
126 421 424 0
-126 400 -424 0
-126 397 -421 0
127 128 129 417 441 0
127 128 129 -417 -441 0
-127 -128 0
-127 -417 441 0
-127 -129 0
-127 417 -441 0
128 415 -439 0
-128 -415 0
-128 439 0
129 414 -438 0
-129 -414 0
-129 438 0
130 -396 419 -420 443 0
130 396 -419 420 -443 0
130 396 419 420 443 0
130 -396 -419 -420 -443 0
-130 -396 420 0
-130 396 -420 0
-130 419 -443 0
-130 -419 443 0
131 132 133 406 430 0
131 132 133 -406 -430 0
-131 -132 0
-131 -406 430 0
-131 -133 0
-131 406 -430 0
132 -397 421 0
-132 397 0
-132 -421 0
133 -400 424 0
-133 400 0
-133 -424 0
134 -135 -138 -139 -140 0
-134 140 0
-134 135 0
-134 139 0
-134 138 0
135 -136 -137 398 422 0
135 -136 -137 -398 -422 0
-135 137 0
-135 -398 422 0
-135 136 0
-135 398 -422 0
136 -399 -429 0
136 405 423 0
136 423 -429 0
136 -399 405 0
-136 -405 429 0
-136 399 -423 0
137 -401 409 -425 433 0
137 401 -409 425 -433 0
137 401 409 425 433 0
137 -401 -409 -425 -433 0
-137 -401 425 0
-137 401 -425 0
-137 409 -433 0
-137 -409 433 0
138 414 418 0
138 -438 -442 0
138 414 -442 0
138 418 -438 0
-138 -414 438 0
-138 -418 442 0
139 -408 -439 0
139 415 432 0
139 432 -439 0
139 -408 415 0
-139 -415 439 0
-139 408 -432 0
140 -404 407 -428 431 0
140 404 -407 428 -431 0
140 404 407 428 431 0
140 -404 -407 -428 -431 0
-140 -404 428 0
-140 404 -428 0
-140 407 -431 0
-140 -407 431 0
141 142 -143 410 434 0
141 142 -143 -410 -434 0
-141 -142 0
-141 410 -434 0
-141 143 0
-141 -410 434 0
142 402 -426 0
142 -402 426 0
-142 -402 -426 0
-142 402 426 0
143 -403 412 -427 436 0
143 403 -412 427 -436 0
143 403 412 427 436 0
143 -403 -412 -427 -436 0
-143 -403 427 0
-143 403 -427 0
-143 412 -436 0
-143 -412 436 0
144 -145 -146 411 435 0
144 -145 -146 -411 -435 0
-144 146 0
-144 -411 435 0
-144 145 0
-144 411 -435 0
145 -418 429 0
145 -405 442 0
145 -405 -418 0
145 429 442 0
-145 418 -442 0
-145 405 -429 0
146 -413 416 -437 440 0
146 413 -416 437 -440 0
146 413 416 437 440 0
146 -413 -416 -437 -440 0
-146 -413 437 0
-146 413 -437 0
-146 416 -440 0
-146 -416 440 0
147 -148 -151 404 476 0
147 -148 -151 -404 -476 0
-147 151 0
-147 -404 476 0
-147 148 0
-147 404 -476 0
148 149 150 397 469 0
148 149 150 -397 -469 0
-148 -149 0
-148 -397 469 0
-148 -150 0
-148 397 -469 0
149 400 -472 0
-149 -400 0
-149 472 0
150 -406 478 0
-150 406 0
-150 -478 0
151 414 418 0
151 -486 -490 0
151 414 -490 0
151 418 -486 0
-151 -414 486 0
-151 -418 490 0
152 -153 -154 419 491 0
152 -153 -154 -419 -491 0
-152 154 0
-152 -419 491 0
-152 153 0
-152 419 -491 0
153 -396 413 -468 485 0
153 396 -413 468 -485 0
153 396 413 468 485 0
153 -396 -413 -468 -485 0
-153 -396 468 0
-153 396 -468 0
-153 413 -485 0
-153 -413 485 0
154 -406 -472 0
154 400 478 0
154 400 -406 0
154 -472 478 0
-154 -400 472 0
-154 406 -478 0
155 -156 -164 -165 -166 0
-155 166 0
-155 156 0
-155 165 0
-155 164 0
156 -157 -161 -162 -163 0
-156 163 0
-156 157 0
-156 162 0
-156 161 0
157 -158 -159 415 487 0
157 -158 -159 -415 -487 0
-157 159 0
-157 -415 487 0
-157 158 0
-157 415 -487 0
158 -417 486 0
158 -414 489 0
158 -414 -417 0
158 486 489 0
-158 417 -489 0
-158 414 -486 0
159 -160 -409 -481 0
159 -160 409 481 0
-159 160 0
-159 -409 481 0
-159 409 -481 0
160 -399 -477 0
160 405 471 0
160 471 -477 0
160 -399 405 0
-160 -405 477 0
-160 399 -471 0
161 -398 407 -470 479 0
161 398 -407 470 -479 0
161 398 407 470 479 0
161 -398 -407 -470 -479 0
-161 -398 470 0
-161 398 -470 0
-161 407 -479 0
-161 -407 479 0
162 408 417 0
162 -480 -489 0
162 408 -489 0
162 417 -480 0
-162 -408 480 0
-162 -417 489 0
163 -418 -471 0
163 399 490 0
163 399 -418 0
163 -471 490 0
-163 -399 471 0
-163 418 -490 0
164 -402 412 -474 484 0
164 402 -412 474 -484 0
164 402 412 474 484 0
164 -402 -412 -474 -484 0
-164 -402 474 0
-164 402 -474 0
-164 412 -484 0
-164 -412 484 0
165 -403 410 -475 482 0
165 403 -410 475 -482 0
165 403 410 475 482 0
165 -403 -410 -475 -482 0
-165 -403 475 0
-165 403 -475 0
-165 410 -482 0
-165 -410 482 0
166 -167 -168 416 488 0
166 -167 -168 -416 -488 0
-166 168 0
-166 -416 488 0
-166 167 0
-166 416 -488 0
167 -401 411 -473 483 0
167 401 -411 473 -483 0
167 401 411 473 483 0
167 -401 -411 -473 -483 0
-167 -401 473 0
-167 401 -473 0
-167 411 -483 0
-167 -411 483 0
168 -408 477 0
168 -405 480 0
168 -405 -408 0
168 477 480 0
-168 408 -480 0
-168 405 -477 0
169 -170 171 -445 471 0
169 170 -171 445 -471 0
169 170 171 445 471 0
169 -170 -171 -445 -471 0
-169 170 -445 0
-169 -170 445 0
-169 -171 471 0
-169 171 -471 0
9 25 170 0
9 170 -439 0
-9 -170 0
-25 -170 439 0
18 -36 171 -465 0
-171 465 0
-18 -171 0
36 -171 0
172 -173 -188 -197 -202 0
-172 202 0
-172 173 0
-172 197 0
-172 188 0
173 -174 181 -352 377 0
173 174 -181 352 -377 0
173 174 181 352 377 0
173 -174 -181 -352 -377 0
-173 174 -352 0
-173 -174 352 0
-173 -181 377 0
-173 181 -377 0
174 -175 180 -346 0
-174 346 0
-174 175 0
-174 -180 0
175 176 178 0
-175 -176 0
-175 -178 0
176 -177 340 341 0
-176 177 0
-176 -341 0
-176 -340 0
177 -336 337 338 339 0
-177 -339 0
-177 -338 0
-177 336 0
-177 -337 0
178 -179 332 333 0
-178 179 0
-178 -333 0
-178 -332 0
179 -330 331 334 335 0
-179 -335 0
-179 -334 0
-179 330 0
-179 -331 0
-179 180 -332 333 0
-180 332 0
-180 -333 0
179 -180 0
181 -182 187 -371 0
-181 371 0
-181 182 0
-181 -187 0
182 183 185 0
-182 -183 0
-182 -185 0
183 -184 -354 355 356 0
-183 184 0
-183 -356 0
-183 354 0
-183 -355 0
184 357 358 359 0
-184 -357 0
-184 -359 0
-184 -358 0
185 -186 -360 361 0
-185 360 0
-185 -361 0
-185 186 0
186 362 363 364 365 0
-186 -365 0
-186 -364 0
-186 -362 0
-186 -363 0
-184 187 -354 355 -356 0
184 -187 0
-187 354 0
-187 356 0
-187 -355 0
188 349 397 0
188 -189 -196 0
188 -196 397 0
188 -189 349 0
-188 189 -397 0
-188 196 -349 0
189 190 192 0
189 190 -391 0
-189 -190 0
-189 -192 391 0
190 -191 -378 379 -380 0
-190 191 0
-190 378 0
-190 380 0
-190 -379 0
191 381 382 383 0
-191 -381 0
-191 -383 0
-191 -382 0
192 193 194 0
-192 -193 0
-192 -194 0
-191 193 -378 379 380 0
191 -193 0
-193 -380 0
-193 378 0
-193 -379 0
194 -195 -384 385 0
-194 384 0
-194 -385 0
-194 195 0
195 386 387 388 389 0
-195 -389 0
-195 -388 0
-195 -386 0
-195 -387 0
180 196 -343 0
175 180 196 0
-180 -196 0
-175 -196 343 0
197 198 199 200 373 0
197 198 -199 200 -373 0
-197 -198 0
-197 199 -373 0
-197 -200 0
-197 -199 373 0
-189 198 397 0
-198 -397 0
189 -198 0
187 199 -367 0
182 187 199 0
-187 -199 0
-182 -199 367 0
200 -201 400 0
200 201 -400 0
-200 -201 -400 0
-200 201 400 0
190 -192 201 -394 0
-201 394 0
-190 -201 0
192 -201 0
202 -203 -248 -349 0
196 202 -203 -248 0
-202 248 0
-202 203 0
-196 -202 349 0
203 -204 -213 -234 -237 0
-203 237 0
-203 204 0
-203 234 0
-203 213 0
204 205 207 212 370 0
204 -205 207 212 -370 0
-204 -207 0
-204 205 -370 0
-204 -212 0
-204 -205 370 0
205 -206 346 0
205 206 -346 0
-205 -206 -346 0
-205 206 346 0
206 -343 -344 -345 0
-206 343 0
-206 344 0
-206 345 0
207 208 -210 0
207 -210 369 0
-207 210 0
-207 -208 -369 0
208 -209 345 0
208 209 -345 0
-208 -209 -345 0
-208 209 345 0
209 -343 -344 0
-209 343 0
-209 344 0
210 -211 393 0
210 211 -393 0
-210 -211 -393 0
-210 211 393 0
211 -367 -368 0
-211 367 0
-211 368 0
210 212 -369 0
-208 210 212 0
-210 -212 0
208 -212 369 0
213 -214 -224 -227 -229 0
-213 229 0
-213 214 0
-213 227 0
-213 224 0
214 -215 -220 -222 -223 0
-214 223 0
-214 215 0
-214 222 0
-214 220 0
215 -216 -217 384 402 0
215 -216 -217 -384 -402 0
-215 217 0
-215 -384 402 0
-215 216 0
-215 384 -402 0
216 -338 -355 0
216 337 356 0
216 337 -338 0
216 -355 356 0
-216 -337 355 0
-216 338 -356 0
217 -218 219 -390 0
217 -218 219 366 0
-217 218 0
-217 -219 0
-217 -366 390 0
218 336 349 0
218 -354 -385 0
218 336 -385 0
218 349 -354 0
-218 -336 354 0
-218 -349 385 0
219 352 -388 0
-219 -352 0
-219 388 0
220 -221 -324 -360 0
220 -221 324 360 0
-220 221 0
-220 -324 360 0
-220 324 -360 0
221 373 377 0
221 -409 -413 0
221 373 -413 0
221 377 -409 0
-221 -373 409 0
-221 -377 413 0
222 -336 -384 0
222 348 354 0
222 354 -384 0
222 -336 348 0
-222 -348 384 0
-222 336 -354 0
223 -341 382 0
223 359 -364 0
223 359 382 0
223 -341 -364 0
-223 341 -359 0
-223 364 -382 0
224 225 226 374 410 0
224 225 226 -374 -410 0
-224 -225 0
-224 -374 410 0
-224 -226 0
-224 374 -410 0
225 373 -409 0
-225 -373 0
-225 409 0
226 -328 364 0
-226 328 0
-226 -364 0
227 -228 -366 -390 0
227 -228 390 414 0
-227 228 0
-227 366 -390 0
-227 390 -414 0
228 -378 388 0
228 360 -406 0
228 360 388 0
228 -378 -406 0
-228 -360 378 0
-228 -388 406 0
229 -230 -233 372 408 0
229 -230 -233 -372 -408 0
-229 233 0
-229 -372 408 0
-229 230 0
-229 372 -408 0
230 231 -232 413 0
230 231 -232 -377 0
-230 232 0
-230 -231 0
-230 377 -413 0
231 337 -355 0
-231 -337 0
-231 355 0
232 329 340 0
232 -358 -365 0
232 340 -365 0
232 329 -358 0
-232 -340 358 0
-232 -329 365 0
233 -367 -412 0
233 376 -391 0
233 -367 376 0
233 -391 -412 0
-233 367 391 0
-233 -376 412 0
-180 234 -235 -236 -392 0
-180 234 235 236 392 0
-234 -236 392 0
-234 -235 236 0
180 -234 0
-234 235 -392 0
235 367 -368 0
235 -367 368 0
-235 -367 -368 0
-235 367 368 0
236 391 -416 0
236 -391 416 0
-236 -391 -416 0
-236 391 416 0
237 -238 -243 -246 -247 0
-237 247 0
-237 238 0
-237 246 0
-237 243 0
238 -239 -242 391 -415 0
238 -239 -242 -391 415 0
-238 242 0
-238 391 415 0
-238 239 0
-238 -391 -415 0
239 -240 241 -362 0
239 -240 241 380 0
-239 240 0
-239 -241 0
-239 362 -380 0
240 350 363 0
240 -381 -386 0
240 363 -386 0
240 350 -381 0
-240 -363 381 0
-240 -350 386 0
241 -353 389 0
-241 353 0
-241 -389 0
242 -363 -382 0
242 364 381 0
242 381 -382 0
242 -363 364 0
-242 -364 382 0
-242 363 -381 0
243 244 -245 385 0
243 244 -245 -403 0
-243 245 0
-243 -244 0
-243 -385 403 0
244 -362 380 0
-244 362 0
-244 -380 0
245 -348 -359 0
245 341 384 0
245 341 -348 0
245 -359 384 0
-245 -341 359 0
-245 348 -384 0
246 -353 378 0
246 -360 389 0
246 -353 -360 0
246 378 389 0
-246 353 -389 0
-246 360 -378 0
247 367 -385 0
247 391 403 0
247 -385 391 0
247 367 403 0
-247 385 -403 0
-247 -367 -391 0
248 -249 -250 -394 418 0
248 249 -250 -394 -418 0
248 249 250 394 418 0
248 -249 250 394 -418 0
-248 -250 394 0
-248 249 -394 418 0
-248 -249 250 418 0
-248 -249 -394 -418 0
-248 249 250 -418 0
249 -391 -392 -393 0
-249 391 0
-249 392 0
-249 393 0
250 -251 370 0
250 251 -370 0
-250 -251 -370 0
-250 251 370 0
-211 251 -369 0
-251 369 0
211 -251 0
252 -253 -269 -277 -278 0
-252 278 0
-252 253 0
-252 277 0
-252 269 0
253 -254 -259 -263 -267 0
-253 267 0
-253 254 0
-253 263 0
-253 259 0
254 -348 395 0
254 -255 -257 0
254 -257 395 0
254 -255 -348 0
-254 255 -395 0
-254 257 348 0
255 -256 371 0
255 256 -371 0
-255 -256 -371 0
-255 256 371 0
-211 256 -369 -370 0
-256 369 0
-256 370 0
211 -256 0
178 257 -258 342 0
-257 258 0
-178 -257 0
-257 -342 0
176 180 258 0
-176 -258 0
-180 -258 0
259 260 -399 0
259 262 -419 0
259 -399 -419 0
259 260 262 0
-259 -262 399 0
-259 -260 419 0
260 -261 395 0
260 261 -395 0
-260 -261 -395 0
-260 261 395 0
-249 261 -394 0
-261 394 0
249 -261 0
190 -192 262 -393 0
-262 393 0
-190 -262 0
192 -262 0
263 264 -350 0
263 -266 398 0
263 264 -266 0
263 -350 398 0
-263 -264 -398 0
-263 266 350 0
-193 264 -265 0
264 -265 392 0
-264 265 0
193 -264 -392 0
190 194 265 0
-190 -265 0
-194 -265 0
-178 -258 266 0
-258 266 344 0
258 -266 0
178 -266 -344 0
255 267 375 0
267 -268 -395 0
267 375 -395 0
255 267 -268 0
-267 268 -375 0
-255 -267 395 0
-182 187 268 -369 0
-268 369 0
182 -268 0
-187 -268 0
269 -270 275 -401 0
269 -270 274 275 0
-269 270 0
-269 -275 0
-269 -274 401 0
270 -271 -372 0
270 -272 353 0
270 353 -372 0
270 -271 -272 0
-270 272 372 0
-270 271 -353 0
-175 180 271 -347 0
-271 347 0
175 -271 0
-180 -271 0
183 272 -273 366 0
-272 273 0
-183 -272 0
-272 -366 0
185 187 273 0
-185 -273 0
-187 -273 0
190 -192 274 -395 0
-274 395 0
-190 -274 0
192 -274 0
275 -276 376 0
-275 -376 0
-275 276 0
-182 187 276 -370 0
-276 370 0
182 -276 0
-187 -276 0
277 399 419 0
-260 -262 277 0
-262 277 419 0
-260 277 399 0
260 -277 -419 0
262 -277 -399 0
278 348 -371 0
257 278 279 0
257 278 -371 0
278 279 348 0
-278 -279 371 0
-257 -278 -348 0
279 -280 347 0
279 280 -347 0
-279 -280 -347 0
-279 280 347 0
-206 280 -346 0
-280 346 0
206 -280 0
281 -282 -318 -322 -323 0
-281 323 0
-281 282 0
-281 322 0
-281 318 0
282 -283 -288 -297 -317 0
-282 317 0
-282 283 0
-282 297 0
-282 288 0
283 -284 286 396 0
283 -284 286 287 0
-283 284 0
-283 -286 0
-283 -287 -396 0
284 351 371 0
-279 284 -285 0
284 -285 371 0
-279 284 351 0
279 -284 -371 0
-284 285 -351 0
-175 180 285 -345 0
-285 345 0
175 -285 0
-180 -285 0
-272 286 -372 0
-286 372 0
272 -286 0
193 -265 287 390 0
265 -287 0
-193 -287 0
-287 -390 0
288 -289 -292 -295 -417 0
288 -289 -292 295 417 0
-288 289 0
-288 -295 417 0
-288 292 0
-288 295 -417 0
289 -290 386 0
289 -290 -350 -404 0
-289 290 0
-289 -386 404 0
-289 350 -386 0
290 291 -389 -407 0
290 291 389 407 0
-290 -291 0
-290 -389 407 0
-290 389 -407 0
291 325 -361 0
291 -361 379 0
-291 361 0
-291 -325 -379 0
292 -293 294 326 362 0
292 -293 294 -326 -362 0
-292 -294 0
-292 -326 362 0
-292 293 0
-292 326 -362 0
293 -342 365 -366 383 0
293 342 -365 366 -383 0
293 342 365 366 383 0
293 -342 -365 -366 -383 0
-293 -342 366 0
-293 342 -366 0
-293 365 -383 0
-293 -365 383 0
294 -352 388 0
294 388 -406 0
-294 -388 0
-294 352 406 0
295 -296 393 0
295 296 -393 0
-295 -296 -393 0
-295 296 393 0
296 -391 -392 0
-296 391 0
-296 392 0
297 -298 -300 -301 -307 0
-297 307 0
-297 298 0
-297 301 0
-297 300 0
298 -299 -351 -387 0
298 -299 387 405 0
-298 299 0
-298 351 -387 0
-298 387 -405 0
299 -376 -414 0
299 390 412 0
299 412 -414 0
299 -376 390 0
-299 -390 414 0
-299 376 -412 0
300 343 -367 -375 -411 0
300 -343 367 -375 -411 0
300 343 -367 375 411 0
300 -343 367 375 411 0
-300 375 -411 0
-300 -375 411 0
-300 -343 -367 0
-300 343 367 0
301 -302 -303 -304 0
-301 302 0
-301 303 0
-301 304 0
302 -361 404 0
302 379 -386 0
302 379 404 0
302 -361 -386 0
-302 361 -379 0
-302 386 -404 0
303 -329 -361 0
303 325 365 0
303 325 -329 0
303 -361 365 0
-303 -325 361 0
-303 329 -365 0
304 305 306 339 357 0
304 305 306 -339 -357 0
-304 -305 0
-304 -339 357 0
-304 -306 0
-304 339 -357 0
305 -387 405 0
-305 387 0
-305 -405 0
306 -338 356 0
-306 338 0
-306 -356 0
307 -308 -309 -310 -312 0
-307 312 0
-307 308 0
-307 310 0
-307 309 0
308 -342 -343 344 -345 0
-308 345 0
-308 342 0
-308 343 0
-308 -344 0
309 -336 -337 -338 339 0
-309 338 0
-309 -339 0
-309 336 0
-309 337 0
310 311 346 347 -368 0
-310 -346 0
-310 -311 0
-310 368 0
-310 -347 0
311 327 -363 0
311 -327 363 0
-311 -327 -363 0
-311 327 363 0
312 -313 -314 -315 -316 0
-312 316 0
-312 313 0
-312 315 0
-312 314 0
313 -349 358 0
313 -340 385 0
313 -340 -349 0
313 358 385 0
-313 349 -385 0
-313 340 -358 0
314 -328 -387 0
314 351 364 0
314 364 -387 0
314 -328 351 0
-314 -351 387 0
-314 328 -364 0
315 326 327 328 329 0
-315 -329 0
-315 -328 0
-315 -326 0
-315 -327 0
316 -324 325 340 341 0
-316 -341 0
-316 -340 0
-316 324 0
-316 -325 0
317 -351 401 0
-274 285 317 0
285 317 401 0
-274 317 -351 0
274 -317 -401 0
-285 -317 351 0
318 319 -320 321 374 0
318 319 320 321 -374 0
-318 -319 0
-318 -320 -374 0
-318 -321 0
-318 320 374 0
264 319 398 0
-319 -398 0
-264 -319 0
-183 -273 320 0
-273 320 368 0
273 -320 0
183 -320 -368 0
-266 321 -350 0
-321 350 0
266 -321 0
-287 322 -375 0
268 322 -396 0
322 -375 -396 0
268 -287 322 0
287 -322 396 0
-268 -322 375 0
-276 323 -353 0
271 323 376 0
271 -276 323 0
323 -353 376 0
276 -323 -376 0
-271 -323 353 0
1 2 0
-1 -2 0
492 0

